76
150
105	12
104	8
103	8
102	8
101	4
100	13
99	6
98	12
97	9
96	9
95	9
94	8
93	10
92	9
91	12
90	12
89	12
88	12
87	12
86	6
85	11
84	4
83	15
82	5
81	9
80	12
79	12
78	7
77	6
76	6
75	5
74	7
73	10
72	11
71	11
70	10
69	8
68	16
67	8
66	9
65	17
64	12
63	13
62	10
61	5
60	9
59	14
58	12
57	5
56	15
55	14
54	16
53	11
52	3
51	12
50	11
49	4
48	12
47	13
46	11
45	8
44	6
43	11
42	10
41	11
40	7
39	14
38	10
37	6
36	12
35	9
34	11
33	10
32	13
31	7
30	13
